(set-logic LIA)
(synth-fun next ((brake Int) (distance Int) (speed Int) (throttle Int) (ignition Bool) (time Int) ) Int
	((Start Int) (Var Int) (StartBool Bool))
	((Start Int (
				 4
				 5
				 6
				 7
				 (ite StartBool Start Start)))

	(Var Int (
			 0
			 1
			 2
			 7
			 307
			 1006
			 brake
			 distance
			 speed
			 throttle
			 time
			 (+ Var Var)						
			 (- Var Var)						
			 (* Var Var)))

	(StartBool Bool (
				 	 ignition
					(= Var Var)						
					(>= Var Var)						
					(<= Var Var)						
					(and StartBool StartBool)			
					(or  StartBool StartBool)				
					(not StartBool)))))

(constraint (= (next 0 1 5 0 true 782 ) 6))
(constraint (= (next 0 1 10 1 true 1434 ) 7))
(constraint (= (next 0 2 7 0 true 783 ) 4))
(constraint (= (next 0 3 5 0 true 1026 ) 5))

(check-synth)
